c Qdimacs file from skolem function generator
p cnf 213 617
c a 118 120 122 124 126 128 130 132 134 136 138 140 142 144 146 148 150 152 154 156 158 160 162 164 166 168 170 172 174 176 178 180 181 182 183 184 185 186 187 188 189 190 191 192 193 194 195 196 197 198 199 200 201 202 203 204 205 206 207 208 209 210 211 212 0
c e 117 119 121 123 125 127 129 131 133 135 137 139 141 143 145 147 149 151 153 155 157 159 161 163 165 167 169 171 173 175 177 179 1 2 3 4 5 6 7 8 9 10 11 12 13 14 15 16 17 18 19 20 21 22 23 24 25 26 27 28 29 30 31 32 33 34 35 36 37 38 39 40 41 42 43 44 45 46 47 48 49 50 51 52 53 54 55 56 57 58 59 60 61 62 63 64 65 66 67 68 69 70 71 72 73 74 75 76 77 78 79 80 81 82 83 84 85 86 87 88 89 90 91 92 93 94 95 96 97 98 99 100 101 102 103 104 105 106 107 108 109 110 111 112 113 114 115 116 213 0
4 5 47 89 -114 0
-4 114 0
-4 -89 0
-4 -5 0
-4 -47 0
5 6 -7 0
5 119 -182 6 0
-5 -6 0
-5 -119 7 0
-5 182 7 0
6 -117 181 0
-6 117 0
-6 -181 0
7 45 -46 0
7 8 -44 -46 0
-7 46 0
-7 -8 -45 0
-7 44 -45 0
8 42 -43 0
8 9 -41 -43 0
-8 43 0
-8 -9 -42 0
-8 41 -42 0
9 39 -40 0
9 10 -38 -40 0
-9 40 0
-9 -10 -39 0
-9 38 -39 0
10 36 -37 0
10 11 -35 -37 0
-10 37 0
-10 -11 -36 0
-10 35 -36 0
11 33 -34 0
11 12 -32 -34 0
-11 34 0
-11 -12 -33 0
-11 32 -33 0
12 30 -31 0
12 13 -29 -31 0
-12 31 0
-12 -13 -30 0
-12 29 -30 0
13 27 -28 0
13 14 -26 -28 0
-13 28 0
-13 -14 -27 0
-13 26 -27 0
14 24 -25 0
14 15 -23 -25 0
-14 25 0
-14 -15 -24 0
-14 23 -24 0
15 21 -22 0
15 16 -20 -22 0
-15 22 0
-15 -16 -21 0
-15 20 -21 0
16 -17 -19 0
16 18 -19 0
-16 19 0
-16 17 -18 0
17 -179 211 0
17 -177 212 0
17 -177 -179 0
17 211 212 0
-17 179 -212 0
-17 177 -211 0
18 175 177 0
18 -210 -211 0
18 175 -211 0
18 177 -210 0
-18 -175 210 0
-18 -177 211 0
19 -175 209 0
19 -173 210 0
19 -173 -175 0
19 209 210 0
-19 175 -210 0
-19 173 -209 0
20 171 173 0
20 -208 -209 0
20 171 -209 0
20 173 -208 0
-20 -171 208 0
-20 -173 209 0
21 -171 207 0
21 -169 208 0
21 -169 -171 0
21 207 208 0
-21 171 -208 0
-21 169 -207 0
22 167 169 0
22 -206 -207 0
22 167 -207 0
22 169 -206 0
-22 -167 206 0
-22 -169 207 0
23 -167 205 0
23 -165 206 0
23 -165 -167 0
23 205 206 0
-23 167 -206 0
-23 165 -205 0
24 163 165 0
24 -204 -205 0
24 163 -205 0
24 165 -204 0
-24 -163 204 0
-24 -165 205 0
25 -163 203 0
25 -161 204 0
25 -161 -163 0
25 203 204 0
-25 163 -204 0
-25 161 -203 0
26 159 161 0
26 -202 -203 0
26 159 -203 0
26 161 -202 0
-26 -159 202 0
-26 -161 203 0
27 -159 201 0
27 -157 202 0
27 -157 -159 0
27 201 202 0
-27 159 -202 0
-27 157 -201 0
28 155 157 0
28 -200 -201 0
28 155 -201 0
28 157 -200 0
-28 -155 200 0
-28 -157 201 0
29 -155 199 0
29 -153 200 0
29 -153 -155 0
29 199 200 0
-29 155 -200 0
-29 153 -199 0
30 151 153 0
30 -198 -199 0
30 151 -199 0
30 153 -198 0
-30 -151 198 0
-30 -153 199 0
31 -151 197 0
31 -149 198 0
31 -149 -151 0
31 197 198 0
-31 151 -198 0
-31 149 -197 0
32 147 149 0
32 -196 -197 0
32 147 -197 0
32 149 -196 0
-32 -147 196 0
-32 -149 197 0
33 -147 195 0
33 -145 196 0
33 -145 -147 0
33 195 196 0
-33 147 -196 0
-33 145 -195 0
34 143 145 0
34 -194 -195 0
34 143 -195 0
34 145 -194 0
-34 -143 194 0
-34 -145 195 0
35 -143 193 0
35 -141 194 0
35 -141 -143 0
35 193 194 0
-35 143 -194 0
-35 141 -193 0
36 139 141 0
36 -192 -193 0
36 139 -193 0
36 141 -192 0
-36 -139 192 0
-36 -141 193 0
37 -139 191 0
37 -137 192 0
37 -137 -139 0
37 191 192 0
-37 139 -192 0
-37 137 -191 0
38 135 137 0
38 -190 -191 0
38 135 -191 0
38 137 -190 0
-38 -135 190 0
-38 -137 191 0
39 -135 189 0
39 -133 190 0
39 -133 -135 0
39 189 190 0
-39 135 -190 0
-39 133 -189 0
40 131 133 0
40 -188 -189 0
40 131 -189 0
40 133 -188 0
-40 -131 188 0
-40 -133 189 0
41 -131 187 0
41 -129 188 0
41 -129 -131 0
41 187 188 0
-41 131 -188 0
-41 129 -187 0
42 127 129 0
42 -186 -187 0
42 127 -187 0
42 129 -186 0
-42 -127 186 0
-42 -129 187 0
43 -127 185 0
43 -125 186 0
43 -125 -127 0
43 185 186 0
-43 127 -186 0
-43 125 -185 0
44 123 125 0
44 -184 -185 0
44 123 -185 0
44 125 -184 0
-44 -123 184 0
-44 -125 185 0
45 -123 183 0
45 -121 184 0
45 -121 -123 0
45 183 184 0
-45 123 -184 0
-45 121 -183 0
46 119 121 0
46 -182 -183 0
46 119 -183 0
46 121 -182 0
-46 -119 182 0
-46 -121 183 0
47 48 -49 0
47 -119 120 48 0
-47 -48 0
-47 -120 49 0
-47 119 49 0
48 117 -118 0
-48 -117 0
-48 118 0
49 87 -88 0
49 50 -86 -88 0
-49 88 0
-49 -50 -87 0
-49 86 -87 0
50 84 -85 0
50 51 -83 -85 0
-50 85 0
-50 -51 -84 0
-50 83 -84 0
51 81 -82 0
51 52 -80 -82 0
-51 82 0
-51 -52 -81 0
-51 80 -81 0
52 78 -79 0
52 53 -77 -79 0
-52 79 0
-52 -53 -78 0
-52 77 -78 0
53 75 -76 0
53 54 -74 -76 0
-53 76 0
-53 -54 -75 0
-53 74 -75 0
54 72 -73 0
54 55 -71 -73 0
-54 73 0
-54 -55 -72 0
-54 71 -72 0
55 69 -70 0
55 56 -68 -70 0
-55 70 0
-55 -56 -69 0
-55 68 -69 0
56 66 -67 0
56 57 -65 -67 0
-56 67 0
-56 -57 -66 0
-56 65 -66 0
57 63 -64 0
57 58 -62 -64 0
-57 64 0
-57 -58 -63 0
-57 62 -63 0
58 -59 -61 0
58 60 -61 0
-58 61 0
-58 59 -60 0
59 -178 179 0
59 177 -180 0
59 177 179 0
59 -178 -180 0
-59 -177 178 0
-59 -179 180 0
60 -175 178 0
60 176 -177 0
60 176 178 0
60 -175 -177 0
-60 175 -176 0
-60 177 -178 0
61 -174 175 0
61 173 -176 0
61 173 175 0
61 -174 -176 0
-61 -173 174 0
-61 -175 176 0
62 -171 174 0
62 172 -173 0
62 172 174 0
62 -171 -173 0
-62 171 -172 0
-62 173 -174 0
63 -170 171 0
63 169 -172 0
63 169 171 0
63 -170 -172 0
-63 -169 170 0
-63 -171 172 0
64 -167 170 0
64 168 -169 0
64 168 170 0
64 -167 -169 0
-64 167 -168 0
-64 169 -170 0
65 -166 167 0
65 165 -168 0
65 165 167 0
65 -166 -168 0
-65 -165 166 0
-65 -167 168 0
66 -163 166 0
66 164 -165 0
66 164 166 0
66 -163 -165 0
-66 163 -164 0
-66 165 -166 0
67 -162 163 0
67 161 -164 0
67 161 163 0
67 -162 -164 0
-67 -161 162 0
-67 -163 164 0
68 -159 162 0
68 160 -161 0
68 160 162 0
68 -159 -161 0
-68 159 -160 0
-68 161 -162 0
69 -158 159 0
69 157 -160 0
69 157 159 0
69 -158 -160 0
-69 -157 158 0
-69 -159 160 0
70 -155 158 0
70 156 -157 0
70 156 158 0
70 -155 -157 0
-70 155 -156 0
-70 157 -158 0
71 -154 155 0
71 153 -156 0
71 153 155 0
71 -154 -156 0
-71 -153 154 0
-71 -155 156 0
72 -151 154 0
72 152 -153 0
72 152 154 0
72 -151 -153 0
-72 151 -152 0
-72 153 -154 0
73 -150 151 0
73 149 -152 0
73 149 151 0
73 -150 -152 0
-73 -149 150 0
-73 -151 152 0
74 -147 150 0
74 148 -149 0
74 148 150 0
74 -147 -149 0
-74 147 -148 0
-74 149 -150 0
75 -146 147 0
75 145 -148 0
75 145 147 0
75 -146 -148 0
-75 -145 146 0
-75 -147 148 0
76 -143 146 0
76 144 -145 0
76 144 146 0
76 -143 -145 0
-76 143 -144 0
-76 145 -146 0
77 -142 143 0
77 141 -144 0
77 141 143 0
77 -142 -144 0
-77 -141 142 0
-77 -143 144 0
78 -139 142 0
78 140 -141 0
78 140 142 0
78 -139 -141 0
-78 139 -140 0
-78 141 -142 0
79 -138 139 0
79 137 -140 0
79 137 139 0
79 -138 -140 0
-79 -137 138 0
-79 -139 140 0
80 -135 138 0
80 136 -137 0
80 136 138 0
80 -135 -137 0
-80 135 -136 0
-80 137 -138 0
81 -134 135 0
81 133 -136 0
81 133 135 0
81 -134 -136 0
-81 -133 134 0
-81 -135 136 0
82 -131 134 0
82 132 -133 0
82 132 134 0
82 -131 -133 0
-82 131 -132 0
-82 133 -134 0
83 -130 131 0
83 129 -132 0
83 129 131 0
83 -130 -132 0
-83 -129 130 0
-83 -131 132 0
84 -127 130 0
84 128 -129 0
84 128 130 0
84 -127 -129 0
-84 127 -128 0
-84 129 -130 0
85 -126 127 0
85 125 -128 0
85 125 127 0
85 -126 -128 0
-85 -125 126 0
-85 -127 128 0
86 -123 126 0
86 124 -125 0
86 124 126 0
86 -123 -125 0
-86 123 -124 0
-86 125 -126 0
87 -122 123 0
87 121 -124 0
87 121 123 0
87 -122 -124 0
-87 -121 122 0
-87 -123 124 0
88 -119 122 0
88 120 -121 0
88 120 122 0
88 -119 -121 0
-88 119 -120 0
-88 121 -122 0
89 90 107 0
89 90 102 0
89 90 111 0
-89 -90 0
-89 -102 -107 -111 0
90 -91 -96 -100 -101 0
-90 101 0
-90 91 0
-90 100 0
-90 96 0
91 -92 -93 -94 -95 0
-91 95 0
-91 92 0
-91 94 0
-91 93 0
92 -77 -78 -79 -80 0
-92 80 0
-92 77 0
-92 79 0
-92 78 0
93 -73 -74 -75 -76 0
-93 76 0
-93 73 0
-93 75 0
-93 74 0
94 -85 -86 -87 -88 0
-94 88 0
-94 85 0
-94 87 0
-94 86 0
95 -81 -82 -83 -84 0
-95 84 0
-95 81 0
-95 83 0
-95 82 0
96 -59 -60 -97 -98 0
-96 98 0
-96 59 0
-96 97 0
-96 60 0
97 -61 -62 -63 -64 0
-97 64 0
-97 61 0
-97 63 0
-97 62 0
98 -179 48 99 0
98 180 48 99 0
-98 -99 0
-98 -48 0
-98 179 -180 0
99 -119 120 0
-99 119 0
-99 -120 0
100 -69 -70 -71 -72 0
-100 72 0
-100 69 0
-100 71 0
-100 70 0
101 -65 -66 -67 -68 0
-101 68 0
-101 65 0
-101 67 0
-101 66 0
102 -103 -104 -105 -106 0
-102 106 0
-102 103 0
-102 105 0
-102 104 0
103 -35 -36 -37 -38 0
-103 38 0
-103 35 0
-103 37 0
-103 36 0
104 -31 -32 -33 -34 0
-104 34 0
-104 31 0
-104 33 0
-104 32 0
105 -43 -44 -45 -46 0
-105 46 0
-105 43 0
-105 45 0
-105 44 0
106 -39 -40 -41 -42 0
-106 42 0
-106 39 0
-106 41 0
-106 40 0
107 -17 -18 -108 -109 0
-107 109 0
-107 17 0
-107 108 0
-107 18 0
108 -19 -20 -21 -22 0
-108 22 0
-108 19 0
-108 21 0
-108 20 0
109 179 6 110 0
109 -212 6 110 0
-109 -110 0
-109 -6 0
-109 -179 212 0
110 119 -182 0
-110 -119 0
-110 182 0
111 -25 -26 -112 -113 0
-111 113 0
-111 25 0
-111 112 0
-111 26 0
112 -27 -28 -29 -30 0
-112 30 0
-112 27 0
-112 29 0
-112 28 0
113 -23 -24 0
-113 23 0
-113 24 0
114 -117 -118 0
114 117 181 0
-114 -117 118 0
-114 117 -181 0
115 -117 -118 -116 0
115 117 181 -116 0
-115 116 0
-115 -117 118 0
-115 117 -181 0
116 5 47 89 0
-116 -5 0
-116 -89 0
-116 -47 0
213 0
2 -4 0
-2 4 0
3 -115 0
-3 115 0
3 0

